i15

VEHICLE
NUMBER     CAPACITY
  14         100

CUSTOMER
CUST NO.  XCOORD.   YCOORD.    DEMAND   READY TIME  DUE DATE   SERVICE   TIME
 
    0       4          4          0           0        100          0   
    1       2          3          8           3         10          0   
    2       1          7          3           8         10          0   
    3       6          1         14           0          5          0   
    4       1          3          9           0          4          0   
    5       1          4          2           9         10          0   
    6       1          6          3           3          8          0   
    7       6          2         14           4         10          0   
    8       8          2          3           2          3          0   
    9       7          0          9           0          9          0   
   10       3          6         13           3         10          0   
   11       7          7          1           6         10          0   
   12       4          3          5           4          9          0   
   13       6          0         14           1          2          0   
   14       0          1         11           7         10          0   
